p cnf 405 2457
1 2 3 4 5 6 7 8 9 0
10 11 12 13 14 15 16 17 18 0
19 20 21 22 23 24 25 26 27 0
28 29 30 31 32 33 34 35 36 0
37 38 39 40 41 42 43 44 45 0
46 47 48 49 50 51 52 53 54 0
55 56 57 58 59 60 61 62 63 0
64 65 66 67 68 69 70 71 72 0
73 74 75 76 77 78 79 80 81 0
82 83 84 85 86 87 88 89 90 0
91 92 93 94 95 96 97 98 99 0
100 101 102 103 104 105 106 107 108 0
109 110 111 112 113 114 115 116 117 0
118 119 120 121 122 123 124 125 126 0
127 128 129 130 131 132 133 134 135 0
136 137 138 139 140 141 142 143 144 0
145 146 147 148 149 150 151 152 153 0
154 155 156 157 158 159 160 161 162 0
163 164 165 166 167 168 169 170 171 0
172 173 174 175 176 177 178 179 180 0
181 182 183 184 185 186 187 188 189 0
190 191 192 193 194 195 196 197 198 0
199 200 201 202 203 204 205 206 207 0
208 209 210 211 212 213 214 215 216 0
217 218 219 220 221 222 223 224 225 0
226 227 228 229 230 231 232 233 234 0
235 236 237 238 239 240 241 242 243 0
244 245 246 247 248 249 250 251 252 0
253 254 255 256 257 258 259 260 261 0
262 263 264 265 266 267 268 269 270 0
271 272 273 274 275 276 277 278 279 0
280 281 282 283 284 285 286 287 288 0
289 290 291 292 293 294 295 296 297 0
298 299 300 301 302 303 304 305 306 0
307 308 309 310 311 312 313 314 315 0
316 317 318 319 320 321 322 323 324 0
325 326 327 328 329 330 331 332 333 0
334 335 336 337 338 339 340 341 342 0
343 344 345 346 347 348 349 350 351 0
352 353 354 355 356 357 358 359 360 0
361 362 363 364 365 366 367 368 369 0
370 371 372 373 374 375 376 377 378 0
379 380 381 382 383 384 385 386 387 0
388 389 390 391 392 393 394 395 396 0
397 398 399 400 401 402 403 404 405 0
-1 -2 0
-1 -3 0
-1 -4 0
-1 -5 0
-1 -6 0
-1 -7 0
-1 -8 0
-1 -9 0
-2 -3 0
-2 -4 0
-2 -5 0
-2 -6 0
-2 -7 0
-2 -8 0
-2 -9 0
-3 -4 0
-3 -5 0
-3 -6 0
-3 -7 0
-3 -8 0
-3 -9 0
-4 -5 0
-4 -6 0
-4 -7 0
-4 -8 0
-4 -9 0
-5 -6 0
-5 -7 0
-5 -8 0
-5 -9 0
-6 -7 0
-6 -8 0
-6 -9 0
-7 -8 0
-7 -9 0
-8 -9 0
-10 -11 0
-10 -12 0
-10 -13 0
-10 -14 0
-10 -15 0
-10 -16 0
-10 -17 0
-10 -18 0
-11 -12 0
-11 -13 0
-11 -14 0
-11 -15 0
-11 -16 0
-11 -17 0
-11 -18 0
-12 -13 0
-12 -14 0
-12 -15 0
-12 -16 0
-12 -17 0
-12 -18 0
-13 -14 0
-13 -15 0
-13 -16 0
-13 -17 0
-13 -18 0
-14 -15 0
-14 -16 0
-14 -17 0
-14 -18 0
-15 -16 0
-15 -17 0
-15 -18 0
-16 -17 0
-16 -18 0
-17 -18 0
-19 -20 0
-19 -21 0
-19 -22 0
-19 -23 0
-19 -24 0
-19 -25 0
-19 -26 0
-19 -27 0
-20 -21 0
-20 -22 0
-20 -23 0
-20 -24 0
-20 -25 0
-20 -26 0
-20 -27 0
-21 -22 0
-21 -23 0
-21 -24 0
-21 -25 0
-21 -26 0
-21 -27 0
-22 -23 0
-22 -24 0
-22 -25 0
-22 -26 0
-22 -27 0
-23 -24 0
-23 -25 0
-23 -26 0
-23 -27 0
-24 -25 0
-24 -26 0
-24 -27 0
-25 -26 0
-25 -27 0
-26 -27 0
-28 -29 0
-28 -30 0
-28 -31 0
-28 -32 0
-28 -33 0
-28 -34 0
-28 -35 0
-28 -36 0
-29 -30 0
-29 -31 0
-29 -32 0
-29 -33 0
-29 -34 0
-29 -35 0
-29 -36 0
-30 -31 0
-30 -32 0
-30 -33 0
-30 -34 0
-30 -35 0
-30 -36 0
-31 -32 0
-31 -33 0
-31 -34 0
-31 -35 0
-31 -36 0
-32 -33 0
-32 -34 0
-32 -35 0
-32 -36 0
-33 -34 0
-33 -35 0
-33 -36 0
-34 -35 0
-34 -36 0
-35 -36 0
-37 -38 0
-37 -39 0
-37 -40 0
-37 -41 0
-37 -42 0
-37 -43 0
-37 -44 0
-37 -45 0
-38 -39 0
-38 -40 0
-38 -41 0
-38 -42 0
-38 -43 0
-38 -44 0
-38 -45 0
-39 -40 0
-39 -41 0
-39 -42 0
-39 -43 0
-39 -44 0
-39 -45 0
-40 -41 0
-40 -42 0
-40 -43 0
-40 -44 0
-40 -45 0
-41 -42 0
-41 -43 0
-41 -44 0
-41 -45 0
-42 -43 0
-42 -44 0
-42 -45 0
-43 -44 0
-43 -45 0
-44 -45 0
-46 -47 0
-46 -48 0
-46 -49 0
-46 -50 0
-46 -51 0
-46 -52 0
-46 -53 0
-46 -54 0
-47 -48 0
-47 -49 0
-47 -50 0
-47 -51 0
-47 -52 0
-47 -53 0
-47 -54 0
-48 -49 0
-48 -50 0
-48 -51 0
-48 -52 0
-48 -53 0
-48 -54 0
-49 -50 0
-49 -51 0
-49 -52 0
-49 -53 0
-49 -54 0
-50 -51 0
-50 -52 0
-50 -53 0
-50 -54 0
-51 -52 0
-51 -53 0
-51 -54 0
-52 -53 0
-52 -54 0
-53 -54 0
-55 -56 0
-55 -57 0
-55 -58 0
-55 -59 0
-55 -60 0
-55 -61 0
-55 -62 0
-55 -63 0
-56 -57 0
-56 -58 0
-56 -59 0
-56 -60 0
-56 -61 0
-56 -62 0
-56 -63 0
-57 -58 0
-57 -59 0
-57 -60 0
-57 -61 0
-57 -62 0
-57 -63 0
-58 -59 0
-58 -60 0
-58 -61 0
-58 -62 0
-58 -63 0
-59 -60 0
-59 -61 0
-59 -62 0
-59 -63 0
-60 -61 0
-60 -62 0
-60 -63 0
-61 -62 0
-61 -63 0
-62 -63 0
-64 -65 0
-64 -66 0
-64 -67 0
-64 -68 0
-64 -69 0
-64 -70 0
-64 -71 0
-64 -72 0
-65 -66 0
-65 -67 0
-65 -68 0
-65 -69 0
-65 -70 0
-65 -71 0
-65 -72 0
-66 -67 0
-66 -68 0
-66 -69 0
-66 -70 0
-66 -71 0
-66 -72 0
-67 -68 0
-67 -69 0
-67 -70 0
-67 -71 0
-67 -72 0
-68 -69 0
-68 -70 0
-68 -71 0
-68 -72 0
-69 -70 0
-69 -71 0
-69 -72 0
-70 -71 0
-70 -72 0
-71 -72 0
-73 -74 0
-73 -75 0
-73 -76 0
-73 -77 0
-73 -78 0
-73 -79 0
-73 -80 0
-73 -81 0
-74 -75 0
-74 -76 0
-74 -77 0
-74 -78 0
-74 -79 0
-74 -80 0
-74 -81 0
-75 -76 0
-75 -77 0
-75 -78 0
-75 -79 0
-75 -80 0
-75 -81 0
-76 -77 0
-76 -78 0
-76 -79 0
-76 -80 0
-76 -81 0
-77 -78 0
-77 -79 0
-77 -80 0
-77 -81 0
-78 -79 0
-78 -80 0
-78 -81 0
-79 -80 0
-79 -81 0
-80 -81 0
-82 -83 0
-82 -84 0
-82 -85 0
-82 -86 0
-82 -87 0
-82 -88 0
-82 -89 0
-82 -90 0
-83 -84 0
-83 -85 0
-83 -86 0
-83 -87 0
-83 -88 0
-83 -89 0
-83 -90 0
-84 -85 0
-84 -86 0
-84 -87 0
-84 -88 0
-84 -89 0
-84 -90 0
-85 -86 0
-85 -87 0
-85 -88 0
-85 -89 0
-85 -90 0
-86 -87 0
-86 -88 0
-86 -89 0
-86 -90 0
-87 -88 0
-87 -89 0
-87 -90 0
-88 -89 0
-88 -90 0
-89 -90 0
-91 -92 0
-91 -93 0
-91 -94 0
-91 -95 0
-91 -96 0
-91 -97 0
-91 -98 0
-91 -99 0
-92 -93 0
-92 -94 0
-92 -95 0
-92 -96 0
-92 -97 0
-92 -98 0
-92 -99 0
-93 -94 0
-93 -95 0
-93 -96 0
-93 -97 0
-93 -98 0
-93 -99 0
-94 -95 0
-94 -96 0
-94 -97 0
-94 -98 0
-94 -99 0
-95 -96 0
-95 -97 0
-95 -98 0
-95 -99 0
-96 -97 0
-96 -98 0
-96 -99 0
-97 -98 0
-97 -99 0
-98 -99 0
-100 -101 0
-100 -102 0
-100 -103 0
-100 -104 0
-100 -105 0
-100 -106 0
-100 -107 0
-100 -108 0
-101 -102 0
-101 -103 0
-101 -104 0
-101 -105 0
-101 -106 0
-101 -107 0
-101 -108 0
-102 -103 0
-102 -104 0
-102 -105 0
-102 -106 0
-102 -107 0
-102 -108 0
-103 -104 0
-103 -105 0
-103 -106 0
-103 -107 0
-103 -108 0
-104 -105 0
-104 -106 0
-104 -107 0
-104 -108 0
-105 -106 0
-105 -107 0
-105 -108 0
-106 -107 0
-106 -108 0
-107 -108 0
-109 -110 0
-109 -111 0
-109 -112 0
-109 -113 0
-109 -114 0
-109 -115 0
-109 -116 0
-109 -117 0
-110 -111 0
-110 -112 0
-110 -113 0
-110 -114 0
-110 -115 0
-110 -116 0
-110 -117 0
-111 -112 0
-111 -113 0
-111 -114 0
-111 -115 0
-111 -116 0
-111 -117 0
-112 -113 0
-112 -114 0
-112 -115 0
-112 -116 0
-112 -117 0
-113 -114 0
-113 -115 0
-113 -116 0
-113 -117 0
-114 -115 0
-114 -116 0
-114 -117 0
-115 -116 0
-115 -117 0
-116 -117 0
-118 -119 0
-118 -120 0
-118 -121 0
-118 -122 0
-118 -123 0
-118 -124 0
-118 -125 0
-118 -126 0
-119 -120 0
-119 -121 0
-119 -122 0
-119 -123 0
-119 -124 0
-119 -125 0
-119 -126 0
-120 -121 0
-120 -122 0
-120 -123 0
-120 -124 0
-120 -125 0
-120 -126 0
-121 -122 0
-121 -123 0
-121 -124 0
-121 -125 0
-121 -126 0
-122 -123 0
-122 -124 0
-122 -125 0
-122 -126 0
-123 -124 0
-123 -125 0
-123 -126 0
-124 -125 0
-124 -126 0
-125 -126 0
-127 -128 0
-127 -129 0
-127 -130 0
-127 -131 0
-127 -132 0
-127 -133 0
-127 -134 0
-127 -135 0
-128 -129 0
-128 -130 0
-128 -131 0
-128 -132 0
-128 -133 0
-128 -134 0
-128 -135 0
-129 -130 0
-129 -131 0
-129 -132 0
-129 -133 0
-129 -134 0
-129 -135 0
-130 -131 0
-130 -132 0
-130 -133 0
-130 -134 0
-130 -135 0
-131 -132 0
-131 -133 0
-131 -134 0
-131 -135 0
-132 -133 0
-132 -134 0
-132 -135 0
-133 -134 0
-133 -135 0
-134 -135 0
-136 -137 0
-136 -138 0
-136 -139 0
-136 -140 0
-136 -141 0
-136 -142 0
-136 -143 0
-136 -144 0
-137 -138 0
-137 -139 0
-137 -140 0
-137 -141 0
-137 -142 0
-137 -143 0
-137 -144 0
-138 -139 0
-138 -140 0
-138 -141 0
-138 -142 0
-138 -143 0
-138 -144 0
-139 -140 0
-139 -141 0
-139 -142 0
-139 -143 0
-139 -144 0
-140 -141 0
-140 -142 0
-140 -143 0
-140 -144 0
-141 -142 0
-141 -143 0
-141 -144 0
-142 -143 0
-142 -144 0
-143 -144 0
-145 -146 0
-145 -147 0
-145 -148 0
-145 -149 0
-145 -150 0
-145 -151 0
-145 -152 0
-145 -153 0
-146 -147 0
-146 -148 0
-146 -149 0
-146 -150 0
-146 -151 0
-146 -152 0
-146 -153 0
-147 -148 0
-147 -149 0
-147 -150 0
-147 -151 0
-147 -152 0
-147 -153 0
-148 -149 0
-148 -150 0
-148 -151 0
-148 -152 0
-148 -153 0
-149 -150 0
-149 -151 0
-149 -152 0
-149 -153 0
-150 -151 0
-150 -152 0
-150 -153 0
-151 -152 0
-151 -153 0
-152 -153 0
-154 -155 0
-154 -156 0
-154 -157 0
-154 -158 0
-154 -159 0
-154 -160 0
-154 -161 0
-154 -162 0
-155 -156 0
-155 -157 0
-155 -158 0
-155 -159 0
-155 -160 0
-155 -161 0
-155 -162 0
-156 -157 0
-156 -158 0
-156 -159 0
-156 -160 0
-156 -161 0
-156 -162 0
-157 -158 0
-157 -159 0
-157 -160 0
-157 -161 0
-157 -162 0
-158 -159 0
-158 -160 0
-158 -161 0
-158 -162 0
-159 -160 0
-159 -161 0
-159 -162 0
-160 -161 0
-160 -162 0
-161 -162 0
-163 -164 0
-163 -165 0
-163 -166 0
-163 -167 0
-163 -168 0
-163 -169 0
-163 -170 0
-163 -171 0
-164 -165 0
-164 -166 0
-164 -167 0
-164 -168 0
-164 -169 0
-164 -170 0
-164 -171 0
-165 -166 0
-165 -167 0
-165 -168 0
-165 -169 0
-165 -170 0
-165 -171 0
-166 -167 0
-166 -168 0
-166 -169 0
-166 -170 0
-166 -171 0
-167 -168 0
-167 -169 0
-167 -170 0
-167 -171 0
-168 -169 0
-168 -170 0
-168 -171 0
-169 -170 0
-169 -171 0
-170 -171 0
-172 -173 0
-172 -174 0
-172 -175 0
-172 -176 0
-172 -177 0
-172 -178 0
-172 -179 0
-172 -180 0
-173 -174 0
-173 -175 0
-173 -176 0
-173 -177 0
-173 -178 0
-173 -179 0
-173 -180 0
-174 -175 0
-174 -176 0
-174 -177 0
-174 -178 0
-174 -179 0
-174 -180 0
-175 -176 0
-175 -177 0
-175 -178 0
-175 -179 0
-175 -180 0
-176 -177 0
-176 -178 0
-176 -179 0
-176 -180 0
-177 -178 0
-177 -179 0
-177 -180 0
-178 -179 0
-178 -180 0
-179 -180 0
-181 -182 0
-181 -183 0
-181 -184 0
-181 -185 0
-181 -186 0
-181 -187 0
-181 -188 0
-181 -189 0
-182 -183 0
-182 -184 0
-182 -185 0
-182 -186 0
-182 -187 0
-182 -188 0
-182 -189 0
-183 -184 0
-183 -185 0
-183 -186 0
-183 -187 0
-183 -188 0
-183 -189 0
-184 -185 0
-184 -186 0
-184 -187 0
-184 -188 0
-184 -189 0
-185 -186 0
-185 -187 0
-185 -188 0
-185 -189 0
-186 -187 0
-186 -188 0
-186 -189 0
-187 -188 0
-187 -189 0
-188 -189 0
-190 -191 0
-190 -192 0
-190 -193 0
-190 -194 0
-190 -195 0
-190 -196 0
-190 -197 0
-190 -198 0
-191 -192 0
-191 -193 0
-191 -194 0
-191 -195 0
-191 -196 0
-191 -197 0
-191 -198 0
-192 -193 0
-192 -194 0
-192 -195 0
-192 -196 0
-192 -197 0
-192 -198 0
-193 -194 0
-193 -195 0
-193 -196 0
-193 -197 0
-193 -198 0
-194 -195 0
-194 -196 0
-194 -197 0
-194 -198 0
-195 -196 0
-195 -197 0
-195 -198 0
-196 -197 0
-196 -198 0
-197 -198 0
-199 -200 0
-199 -201 0
-199 -202 0
-199 -203 0
-199 -204 0
-199 -205 0
-199 -206 0
-199 -207 0
-200 -201 0
-200 -202 0
-200 -203 0
-200 -204 0
-200 -205 0
-200 -206 0
-200 -207 0
-201 -202 0
-201 -203 0
-201 -204 0
-201 -205 0
-201 -206 0
-201 -207 0
-202 -203 0
-202 -204 0
-202 -205 0
-202 -206 0
-202 -207 0
-203 -204 0
-203 -205 0
-203 -206 0
-203 -207 0
-204 -205 0
-204 -206 0
-204 -207 0
-205 -206 0
-205 -207 0
-206 -207 0
-208 -209 0
-208 -210 0
-208 -211 0
-208 -212 0
-208 -213 0
-208 -214 0
-208 -215 0
-208 -216 0
-209 -210 0
-209 -211 0
-209 -212 0
-209 -213 0
-209 -214 0
-209 -215 0
-209 -216 0
-210 -211 0
-210 -212 0
-210 -213 0
-210 -214 0
-210 -215 0
-210 -216 0
-211 -212 0
-211 -213 0
-211 -214 0
-211 -215 0
-211 -216 0
-212 -213 0
-212 -214 0
-212 -215 0
-212 -216 0
-213 -214 0
-213 -215 0
-213 -216 0
-214 -215 0
-214 -216 0
-215 -216 0
-217 -218 0
-217 -219 0
-217 -220 0
-217 -221 0
-217 -222 0
-217 -223 0
-217 -224 0
-217 -225 0
-218 -219 0
-218 -220 0
-218 -221 0
-218 -222 0
-218 -223 0
-218 -224 0
-218 -225 0
-219 -220 0
-219 -221 0
-219 -222 0
-219 -223 0
-219 -224 0
-219 -225 0
-220 -221 0
-220 -222 0
-220 -223 0
-220 -224 0
-220 -225 0
-221 -222 0
-221 -223 0
-221 -224 0
-221 -225 0
-222 -223 0
-222 -224 0
-222 -225 0
-223 -224 0
-223 -225 0
-224 -225 0
-226 -227 0
-226 -228 0
-226 -229 0
-226 -230 0
-226 -231 0
-226 -232 0
-226 -233 0
-226 -234 0
-227 -228 0
-227 -229 0
-227 -230 0
-227 -231 0
-227 -232 0
-227 -233 0
-227 -234 0
-228 -229 0
-228 -230 0
-228 -231 0
-228 -232 0
-228 -233 0
-228 -234 0
-229 -230 0
-229 -231 0
-229 -232 0
-229 -233 0
-229 -234 0
-230 -231 0
-230 -232 0
-230 -233 0
-230 -234 0
-231 -232 0
-231 -233 0
-231 -234 0
-232 -233 0
-232 -234 0
-233 -234 0
-235 -236 0
-235 -237 0
-235 -238 0
-235 -239 0
-235 -240 0
-235 -241 0
-235 -242 0
-235 -243 0
-236 -237 0
-236 -238 0
-236 -239 0
-236 -240 0
-236 -241 0
-236 -242 0
-236 -243 0
-237 -238 0
-237 -239 0
-237 -240 0
-237 -241 0
-237 -242 0
-237 -243 0
-238 -239 0
-238 -240 0
-238 -241 0
-238 -242 0
-238 -243 0
-239 -240 0
-239 -241 0
-239 -242 0
-239 -243 0
-240 -241 0
-240 -242 0
-240 -243 0
-241 -242 0
-241 -243 0
-242 -243 0
-244 -245 0
-244 -246 0
-244 -247 0
-244 -248 0
-244 -249 0
-244 -250 0
-244 -251 0
-244 -252 0
-245 -246 0
-245 -247 0
-245 -248 0
-245 -249 0
-245 -250 0
-245 -251 0
-245 -252 0
-246 -247 0
-246 -248 0
-246 -249 0
-246 -250 0
-246 -251 0
-246 -252 0
-247 -248 0
-247 -249 0
-247 -250 0
-247 -251 0
-247 -252 0
-248 -249 0
-248 -250 0
-248 -251 0
-248 -252 0
-249 -250 0
-249 -251 0
-249 -252 0
-250 -251 0
-250 -252 0
-251 -252 0
-253 -254 0
-253 -255 0
-253 -256 0
-253 -257 0
-253 -258 0
-253 -259 0
-253 -260 0
-253 -261 0
-254 -255 0
-254 -256 0
-254 -257 0
-254 -258 0
-254 -259 0
-254 -260 0
-254 -261 0
-255 -256 0
-255 -257 0
-255 -258 0
-255 -259 0
-255 -260 0
-255 -261 0
-256 -257 0
-256 -258 0
-256 -259 0
-256 -260 0
-256 -261 0
-257 -258 0
-257 -259 0
-257 -260 0
-257 -261 0
-258 -259 0
-258 -260 0
-258 -261 0
-259 -260 0
-259 -261 0
-260 -261 0
-262 -263 0
-262 -264 0
-262 -265 0
-262 -266 0
-262 -267 0
-262 -268 0
-262 -269 0
-262 -270 0
-263 -264 0
-263 -265 0
-263 -266 0
-263 -267 0
-263 -268 0
-263 -269 0
-263 -270 0
-264 -265 0
-264 -266 0
-264 -267 0
-264 -268 0
-264 -269 0
-264 -270 0
-265 -266 0
-265 -267 0
-265 -268 0
-265 -269 0
-265 -270 0
-266 -267 0
-266 -268 0
-266 -269 0
-266 -270 0
-267 -268 0
-267 -269 0
-267 -270 0
-268 -269 0
-268 -270 0
-269 -270 0
-271 -272 0
-271 -273 0
-271 -274 0
-271 -275 0
-271 -276 0
-271 -277 0
-271 -278 0
-271 -279 0
-272 -273 0
-272 -274 0
-272 -275 0
-272 -276 0
-272 -277 0
-272 -278 0
-272 -279 0
-273 -274 0
-273 -275 0
-273 -276 0
-273 -277 0
-273 -278 0
-273 -279 0
-274 -275 0
-274 -276 0
-274 -277 0
-274 -278 0
-274 -279 0
-275 -276 0
-275 -277 0
-275 -278 0
-275 -279 0
-276 -277 0
-276 -278 0
-276 -279 0
-277 -278 0
-277 -279 0
-278 -279 0
-280 -281 0
-280 -282 0
-280 -283 0
-280 -284 0
-280 -285 0
-280 -286 0
-280 -287 0
-280 -288 0
-281 -282 0
-281 -283 0
-281 -284 0
-281 -285 0
-281 -286 0
-281 -287 0
-281 -288 0
-282 -283 0
-282 -284 0
-282 -285 0
-282 -286 0
-282 -287 0
-282 -288 0
-283 -284 0
-283 -285 0
-283 -286 0
-283 -287 0
-283 -288 0
-284 -285 0
-284 -286 0
-284 -287 0
-284 -288 0
-285 -286 0
-285 -287 0
-285 -288 0
-286 -287 0
-286 -288 0
-287 -288 0
-289 -290 0
-289 -291 0
-289 -292 0
-289 -293 0
-289 -294 0
-289 -295 0
-289 -296 0
-289 -297 0
-290 -291 0
-290 -292 0
-290 -293 0
-290 -294 0
-290 -295 0
-290 -296 0
-290 -297 0
-291 -292 0
-291 -293 0
-291 -294 0
-291 -295 0
-291 -296 0
-291 -297 0
-292 -293 0
-292 -294 0
-292 -295 0
-292 -296 0
-292 -297 0
-293 -294 0
-293 -295 0
-293 -296 0
-293 -297 0
-294 -295 0
-294 -296 0
-294 -297 0
-295 -296 0
-295 -297 0
-296 -297 0
-298 -299 0
-298 -300 0
-298 -301 0
-298 -302 0
-298 -303 0
-298 -304 0
-298 -305 0
-298 -306 0
-299 -300 0
-299 -301 0
-299 -302 0
-299 -303 0
-299 -304 0
-299 -305 0
-299 -306 0
-300 -301 0
-300 -302 0
-300 -303 0
-300 -304 0
-300 -305 0
-300 -306 0
-301 -302 0
-301 -303 0
-301 -304 0
-301 -305 0
-301 -306 0
-302 -303 0
-302 -304 0
-302 -305 0
-302 -306 0
-303 -304 0
-303 -305 0
-303 -306 0
-304 -305 0
-304 -306 0
-305 -306 0
-307 -308 0
-307 -309 0
-307 -310 0
-307 -311 0
-307 -312 0
-307 -313 0
-307 -314 0
-307 -315 0
-308 -309 0
-308 -310 0
-308 -311 0
-308 -312 0
-308 -313 0
-308 -314 0
-308 -315 0
-309 -310 0
-309 -311 0
-309 -312 0
-309 -313 0
-309 -314 0
-309 -315 0
-310 -311 0
-310 -312 0
-310 -313 0
-310 -314 0
-310 -315 0
-311 -312 0
-311 -313 0
-311 -314 0
-311 -315 0
-312 -313 0
-312 -314 0
-312 -315 0
-313 -314 0
-313 -315 0
-314 -315 0
-316 -317 0
-316 -318 0
-316 -319 0
-316 -320 0
-316 -321 0
-316 -322 0
-316 -323 0
-316 -324 0
-317 -318 0
-317 -319 0
-317 -320 0
-317 -321 0
-317 -322 0
-317 -323 0
-317 -324 0
-318 -319 0
-318 -320 0
-318 -321 0
-318 -322 0
-318 -323 0
-318 -324 0
-319 -320 0
-319 -321 0
-319 -322 0
-319 -323 0
-319 -324 0
-320 -321 0
-320 -322 0
-320 -323 0
-320 -324 0
-321 -322 0
-321 -323 0
-321 -324 0
-322 -323 0
-322 -324 0
-323 -324 0
-325 -326 0
-325 -327 0
-325 -328 0
-325 -329 0
-325 -330 0
-325 -331 0
-325 -332 0
-325 -333 0
-326 -327 0
-326 -328 0
-326 -329 0
-326 -330 0
-326 -331 0
-326 -332 0
-326 -333 0
-327 -328 0
-327 -329 0
-327 -330 0
-327 -331 0
-327 -332 0
-327 -333 0
-328 -329 0
-328 -330 0
-328 -331 0
-328 -332 0
-328 -333 0
-329 -330 0
-329 -331 0
-329 -332 0
-329 -333 0
-330 -331 0
-330 -332 0
-330 -333 0
-331 -332 0
-331 -333 0
-332 -333 0
-334 -335 0
-334 -336 0
-334 -337 0
-334 -338 0
-334 -339 0
-334 -340 0
-334 -341 0
-334 -342 0
-335 -336 0
-335 -337 0
-335 -338 0
-335 -339 0
-335 -340 0
-335 -341 0
-335 -342 0
-336 -337 0
-336 -338 0
-336 -339 0
-336 -340 0
-336 -341 0
-336 -342 0
-337 -338 0
-337 -339 0
-337 -340 0
-337 -341 0
-337 -342 0
-338 -339 0
-338 -340 0
-338 -341 0
-338 -342 0
-339 -340 0
-339 -341 0
-339 -342 0
-340 -341 0
-340 -342 0
-341 -342 0
-343 -344 0
-343 -345 0
-343 -346 0
-343 -347 0
-343 -348 0
-343 -349 0
-343 -350 0
-343 -351 0
-344 -345 0
-344 -346 0
-344 -347 0
-344 -348 0
-344 -349 0
-344 -350 0
-344 -351 0
-345 -346 0
-345 -347 0
-345 -348 0
-345 -349 0
-345 -350 0
-345 -351 0
-346 -347 0
-346 -348 0
-346 -349 0
-346 -350 0
-346 -351 0
-347 -348 0
-347 -349 0
-347 -350 0
-347 -351 0
-348 -349 0
-348 -350 0
-348 -351 0
-349 -350 0
-349 -351 0
-350 -351 0
-352 -353 0
-352 -354 0
-352 -355 0
-352 -356 0
-352 -357 0
-352 -358 0
-352 -359 0
-352 -360 0
-353 -354 0
-353 -355 0
-353 -356 0
-353 -357 0
-353 -358 0
-353 -359 0
-353 -360 0
-354 -355 0
-354 -356 0
-354 -357 0
-354 -358 0
-354 -359 0
-354 -360 0
-355 -356 0
-355 -357 0
-355 -358 0
-355 -359 0
-355 -360 0
-356 -357 0
-356 -358 0
-356 -359 0
-356 -360 0
-357 -358 0
-357 -359 0
-357 -360 0
-358 -359 0
-358 -360 0
-359 -360 0
-361 -362 0
-361 -363 0
-361 -364 0
-361 -365 0
-361 -366 0
-361 -367 0
-361 -368 0
-361 -369 0
-362 -363 0
-362 -364 0
-362 -365 0
-362 -366 0
-362 -367 0
-362 -368 0
-362 -369 0
-363 -364 0
-363 -365 0
-363 -366 0
-363 -367 0
-363 -368 0
-363 -369 0
-364 -365 0
-364 -366 0
-364 -367 0
-364 -368 0
-364 -369 0
-365 -366 0
-365 -367 0
-365 -368 0
-365 -369 0
-366 -367 0
-366 -368 0
-366 -369 0
-367 -368 0
-367 -369 0
-368 -369 0
-370 -371 0
-370 -372 0
-370 -373 0
-370 -374 0
-370 -375 0
-370 -376 0
-370 -377 0
-370 -378 0
-371 -372 0
-371 -373 0
-371 -374 0
-371 -375 0
-371 -376 0
-371 -377 0
-371 -378 0
-372 -373 0
-372 -374 0
-372 -375 0
-372 -376 0
-372 -377 0
-372 -378 0
-373 -374 0
-373 -375 0
-373 -376 0
-373 -377 0
-373 -378 0
-374 -375 0
-374 -376 0
-374 -377 0
-374 -378 0
-375 -376 0
-375 -377 0
-375 -378 0
-376 -377 0
-376 -378 0
-377 -378 0
-379 -380 0
-379 -381 0
-379 -382 0
-379 -383 0
-379 -384 0
-379 -385 0
-379 -386 0
-379 -387 0
-380 -381 0
-380 -382 0
-380 -383 0
-380 -384 0
-380 -385 0
-380 -386 0
-380 -387 0
-381 -382 0
-381 -383 0
-381 -384 0
-381 -385 0
-381 -386 0
-381 -387 0
-382 -383 0
-382 -384 0
-382 -385 0
-382 -386 0
-382 -387 0
-383 -384 0
-383 -385 0
-383 -386 0
-383 -387 0
-384 -385 0
-384 -386 0
-384 -387 0
-385 -386 0
-385 -387 0
-386 -387 0
-388 -389 0
-388 -390 0
-388 -391 0
-388 -392 0
-388 -393 0
-388 -394 0
-388 -395 0
-388 -396 0
-389 -390 0
-389 -391 0
-389 -392 0
-389 -393 0
-389 -394 0
-389 -395 0
-389 -396 0
-390 -391 0
-390 -392 0
-390 -393 0
-390 -394 0
-390 -395 0
-390 -396 0
-391 -392 0
-391 -393 0
-391 -394 0
-391 -395 0
-391 -396 0
-392 -393 0
-392 -394 0
-392 -395 0
-392 -396 0
-393 -394 0
-393 -395 0
-393 -396 0
-394 -395 0
-394 -396 0
-395 -396 0
-397 -398 0
-397 -399 0
-397 -400 0
-397 -401 0
-397 -402 0
-397 -403 0
-397 -404 0
-397 -405 0
-398 -399 0
-398 -400 0
-398 -401 0
-398 -402 0
-398 -403 0
-398 -404 0
-398 -405 0
-399 -400 0
-399 -401 0
-399 -402 0
-399 -403 0
-399 -404 0
-399 -405 0
-400 -401 0
-400 -402 0
-400 -403 0
-400 -404 0
-400 -405 0
-401 -402 0
-401 -403 0
-401 -404 0
-401 -405 0
-402 -403 0
-402 -404 0
-402 -405 0
-403 -404 0
-403 -405 0
-404 -405 0
-4 -26 0
-9 -24 0
-2 -21 0
-3 -19 0
-5 -23 0
-7 -25 0
-9 -26 0
-8 -21 0
-6 -118 0
-8 -123 0
-8 -121 0
-9 -124 0
-8 -124 0
-3 -125 0
-3 -124 0
-4 -118 0
-5 -159 0
-8 -158 0
-3 -160 0
-1 -158 0
-5 -160 0
-2 -158 0
-2 -161 0
-8 -160 0
-6 -296 0
-2 -296 0
-9 -292 0
-7 -292 0
-6 -289 0
-6 -297 0
-9 -297 0
-5 -292 0
-4 -324 0
-2 -320 0
-1 -320 0
-3 -320 0
-3 -319 0
-8 -318 0
-6 -319 0
-7 -317 0
-4 -369 0
-3 -365 0
-9 -367 0
-8 -365 0
-7 -366 0
-4 -362 0
-5 -363 0
-8 -366 0
-18 -37 0
-16 -40 0
-12 -40 0
-15 -38 0
-13 -37 0
-15 -41 0
-17 -37 0
-10 -41 0
-18 -100 0
-16 -100 0
-14 -104 0
-15 -100 0
-14 -105 0
-10 -100 0
-18 -108 0
-16 -103 0
-16 -199 0
-13 -199 0
-10 -202 0
-14 -200 0
-18 -207 0
-14 -204 0
-18 -202 0
-15 -207 0
-10 -402 0
-11 -398 0
-17 -399 0
-13 -398 0
-10 -400 0
-12 -402 0
-17 -403 0
-10 -401 0
-22 -34 0
-21 -34 0
-23 -33 0
-24 -30 0
-26 -35 0
-24 -28 0
-23 -28 0
-25 -34 0
-20 -63 0
-27 -55 0
-19 -61 0
-22 -55 0
-19 -57 0
-25 -61 0
-19 -60 0
-27 -63 0
-19 -72 0
-24 -64 0
-25 -66 0
-21 -72 0
-27 -64 0
-27 -70 0
-23 -70 0
-22 -65 0
-21 -75 0
-26 -76 0
-26 -81 0
-25 -74 0
-22 -79 0
-24 -74 0
-23 -81 0
-19 -79 0
-25 -328 0
-25 -327 0
-23 -333 0
-25 -332 0
-22 -333 0
-20 -329 0
-21 -326 0
-19 -327 0
-35 -72 0
-28 -71 0
-34 -70 0
-30 -72 0
-34 -71 0
-35 -67 0
-29 -69 0
-29 -64 0
-36 -123 0
-35 -120 0
-28 -122 0
-28 -123 0
-34 -125 0
-31 -120 0
-33 -118 0
-28 -118 0
-34 -129 0
-31 -135 0
-33 -129 0
-32 -127 0
-31 -127 0
-29 -128 0
-35 -133 0
-35 -135 0
-28 -146 0
-35 -152 0
-36 -147 0
-34 -149 0
-28 -153 0
-30 -152 0
-31 -146 0
-29 -148 0
-35 -225 0
-31 -219 0
-30 -221 0
-36 -217 0
-35 -220 0
-32 -219 0
-32 -224 0
-31 -225 0
-33 -247 0
-36 -248 0
-36 -252 0
-35 -248 0
-36 -249 0
-32 -244 0
-34 -244 0
-28 -246 0
-44 -106 0
-37 -103 0
-40 -101 0
-39 -106 0
-44 -107 0
-42 -106 0
-39 -108 0
-39 -104 0
-40 -113 0
-38 -117 0
-44 -117 0
-38 -113 0
-37 -109 0
-41 -111 0
-38 -115 0
-39 -114 0
-39 -207 0
-41 -207 0
-45 -204 0
-42 -199 0
-37 -199 0
-42 -206 0
-44 -203 0
-38 -206 0
-40 -287 0
-39 -287 0
-41 -287 0
-41 -282 0
-45 -287 0
-43 -288 0
-38 -281 0
-43 -281 0
-39 -303 0
-38 -305 0
-45 -306 0
-39 -298 0
-45 -298 0
-43 -299 0
-39 -305 0
-39 -302 0
-45 -311 0
-39 -307 0
-43 -314 0
-45 -309 0
-42 -315 0
-41 -312 0
-41 -309 0
-44 -312 0
-53 -138 0
-52 -144 0
-46 -143 0
-50 -141 0
-47 -137 0
-54 -141 0
-53 -142 0
-54 -140 0
-48 -210 0
-51 -214 0
-52 -209 0
-50 -211 0
-50 -213 0
-50 -215 0
-53 -210 0
-48 -215 0
-56 -135 0
-55 -131 0
-56 -130 0
-62 -133 0
-59 -130 0
-61 -127 0
-55 -128 0
-56 -133 0
-62 -187 0
-58 -181 0
-63 -182 0
-61 -188 0
-55 -185 0
-63 -189 0
-62 -186 0
-57 -185 0
-63 -230 0
-61 -229 0
-55 -227 0
-55 -233 0
-56 -227 0
-55 -232 0
-61 -231 0
-56 -233 0
-58 -313 0
-63 -314 0
-62 -308 0
-55 -308 0
-59 -307 0
-59 -308 0
-63 -311 0
-59 -310 0
-61 -394 0
-55 -395 0
-55 -393 0
-58 -396 0
-60 -390 0
-57 -388 0
-55 -391 0
-61 -396 0
-72 -216 0
-66 -213 0
-71 -211 0
-72 -209 0
-71 -216 0
-65 -208 0
-64 -213 0
-68 -211 0
-68 -221 0
-65 -224 0
-64 -221 0
-68 -224 0
-67 -221 0
-66 -219 0
-69 -221 0
-64 -220 0
-77 -164 0
-79 -170 0
-73 -170 0
-76 -169 0
-78 -170 0
-80 -166 0
-77 -167 0
-76 -166 0
-74 -249 0
-79 -249 0
-81 -246 0
-81 -250 0
-81 -248 0
-80 -248 0
-75 -249 0
-76 -244 0
-76 -315 0
-80 -307 0
-80 -311 0
-77 -308 0
-78 -314 0
-78 -315 0
-75 -313 0
-76 -313 0
-77 -363 0
-78 -366 0
-80 -364 0
-75 -364 0
-76 -363 0
-76 -365 0
-73 -366 0
-80 -367 0
-82 -141 0
-89 -139 0
-87 -136 0
-86 -142 0
-86 -144 0
-86 -136 0
-87 -138 0
-88 -142 0
-91 -188 0
-97 -185 0
-94 -185 0
-99 -188 0
-97 -182 0
-96 -188 0
-92 -189 0
-98 -186 0
-94 -251 0
-96 -245 0
-94 -244 0
-92 -251 0
-96 -250 0
-93 -248 0
-99 -251 0
-92 -246 0
-91 -259 0
-99 -257 0
-97 -260 0
-97 -256 0
-95 -253 0
-92 -254 0
-94 -260 0
-94 -257 0
-97 -271 0
-98 -274 0
-92 -272 0
-99 -274 0
-99 -279 0
-94 -278 0
-98 -275 0
-95 -272 0
-107 -228 0
-107 -229 0
-105 -230 0
-108 -229 0
-104 -228 0
-104 -226 0
-106 -226 0
-104 -229 0
-107 -370 0
-108 -376 0
-100 -375 0
-101 -370 0
-102 -372 0
-107 -371 0
-104 -373 0
-107 -372 0
-113 -158 0
-110 -159 0
-112 -158 0
-112 -160 0
-110 -161 0
-115 -159 0
-116 -156 0
-112 -155 0
-111 -335 0
-116 -341 0
-113 -334 0
-115 -335 0
-116 -334 0
-112 -336 0
-109 -340 0
-115 -336 0
-111 -364 0
-116 -362 0
-112 -361 0
-111 -361 0
-110 -363 0
-110 -368 0
-115 -366 0
-109 -364 0
-123 -232 0
-123 -230 0
-122 -234 0
-126 -226 0
-124 -232 0
-122 -231 0
-123 -228 0
-118 -229 0
-125 -305 0
-126 -301 0
-120 -298 0
-122 -301 0
-124 -301 0
-119 -305 0
-118 -300 0
-126 -300 0
-124 -320 0
-120 -320 0
-122 -323 0
-122 -318 0
-119 -324 0
-126 -320 0
-118 -316 0
-121 -317 0
-120 -333 0
-121 -325 0
-121 -333 0
-123 -331 0
-124 -333 0
-126 -332 0
-125 -327 0
-124 -332 0
-124 -404 0
-121 -401 0
-119 -405 0
-125 -402 0
-118 -401 0
-123 -405 0
-122 -400 0
-126 -403 0
-131 -248 0
-130 -247 0
-128 -252 0
-127 -251 0
-134 -246 0
-132 -245 0
-131 -244 0
-134 -251 0
-133 -339 0
-135 -335 0
-132 -335 0
-131 -340 0
-135 -334 0
-131 -341 0
-129 -335 0
-127 -337 0
-131 -360 0
-127 -358 0
-129 -354 0
-135 -355 0
-128 -357 0
-128 -359 0
-133 -360 0
-135 -359 0
-140 -263 0
-137 -267 0
-138 -268 0
-137 -269 0
-143 -265 0
-136 -265 0
-137 -270 0
-140 -268 0
-142 -303 0
-140 -298 0
-138 -303 0
-143 -305 0
-139 -306 0
-139 -301 0
-139 -300 0
-143 -298 0
-137 -313 0
-141 -311 0
-141 -315 0
-142 -315 0
-138 -307 0
-140 -307 0
-137 -311 0
-139 -312 0
-139 -350 0
-139 -343 0
-137 -351 0
-143 -350 0
-137 -348 0
-136 -344 0
-142 -343 0
-143 -347 0
-139 -391 0
-141 -396 0
-142 -391 0
-141 -391 0
-136 -396 0
-136 -395 0
-141 -388 0
-143 -391 0
-148 -183 0
-145 -183 0
-150 -187 0
-152 -181 0
-153 -184 0
-149 -188 0
-153 -189 0
-153 -185 0
-150 -295 0
-151 -295 0
-149 -289 0
-146 -289 0
-146 -293 0
-148 -290 0
-148 -291 0
-150 -290 0
-146 -404 0
-149 -404 0
-150 -397 0
-153 -401 0
-147 -398 0
-145 -397 0
-148 -399 0
-151 -404 0
-155 -166 0
-162 -168 0
-161 -163 0
-162 -167 0
-160 -166 0
-154 -168 0
-158 -164 0
-160 -164 0
-159 -201 0
-159 -203 0
-161 -205 0
-158 -200 0
-160 -204 0
-155 -203 0
-155 -200 0
-159 -199 0
-156 -388 0
-154 -392 0
-161 -394 0
-158 -394 0
-158 -390 0
-154 -388 0
-157 -391 0
-155 -396 0
-164 -323 0
-171 -324 0
-168 -321 0
-165 -318 0
-163 -324 0
-171 -316 0
-165 -316 0
-164 -320 0
-171 -377 0
-169 -376 0
-171 -378 0
-170 -373 0
-171 -372 0
-168 -373 0
-164 -377 0
-170 -377 0
-166 -389 0
-166 -396 0
-168 -395 0
-168 -396 0
-166 -388 0
-163 -392 0
-164 -394 0
-170 -391 0
-175 -228 0
-177 -226 0
-175 -227 0
-180 -234 0
-179 -228 0
-176 -231 0
-174 -226 0
-176 -232 0
-179 -297 0
-175 -295 0
-174 -291 0
-174 -289 0
-176 -297 0
-173 -293 0
-179 -290 0
-173 -289 0
-174 -367 0
-172 -363 0
-175 -367 0
-179 -364 0
-175 -362 0
-176 -361 0
-180 -363 0
-176 -368 0
-186 -277 0
-188 -279 0
-183 -275 0
-181 -273 0
-182 -275 0
-185 -272 0
-189 -274 0
-182 -271 0
-185 -296 0
-185 -290 0
-183 -293 0
-185 -291 0
-189 -296 0
-183 -291 0
-187 -291 0
-186 -289 0
-184 -314 0
-184 -307 0
-186 -309 0
-187 -308 0
-185 -312 0
-184 -312 0
-184 -310 0
-186 -307 0
-189 -394 0
-184 -396 0
-181 -395 0
-186 -392 0
-189 -395 0
-182 -393 0
-189 -393 0
-183 -388 0
-196 -237 0
-190 -239 0
-192 -241 0
-190 -240 0
-198 -240 0
-191 -243 0
-198 -239 0
-191 -237 0
-193 -253 0
-190 -256 0
-190 -255 0
-194 -253 0
-197 -254 0
-192 -260 0
-191 -257 0
-192 -259 0
-195 -376 0
-195 -370 0
-192 -372 0
-192 -370 0
-190 -373 0
-194 -377 0
-191 -372 0
-198 -375 0
-200 -286 0
-199 -281 0
-206 -283 0
-201 -280 0
-203 -281 0
-202 -283 0
-205 -283 0
-200 -288 0
-215 -247 0
-215 -244 0
-210 -252 0
-214 -246 0
-215 -245 0
-208 -250 0
-210 -244 0
-210 -247 0
-215 -310 0
-212 -311 0
-208 -314 0
-214 -307 0
-215 -315 0
-216 -311 0
-216 -315 0
-211 -314 0
-219 -287 0
-222 -282 0
-223 -282 0
-224 -286 0
-218 -286 0
-218 -283 0
-225 -284 0
-217 -281 0
-228 -235 0
-232 -242 0
-229 -242 0
-226 -237 0
-233 -241 0
-230 -238 0
-227 -236 0
-226 -241 0
-229 -394 0
-228 -389 0
-226 -391 0
-231 -389 0
-234 -390 0
-228 -396 0
-227 -391 0
-226 -388 0
-231 -397 0
-233 -403 0
-226 -403 0
-233 -404 0
-234 -397 0
-232 -400 0
-231 -399 0
-233 -400 0
-242 -246 0
-239 -248 0
-235 -251 0
-240 -252 0
-241 -246 0
-239 -249 0
-235 -252 0
-240 -246 0
-253 -290 0
-261 -295 0
-258 -289 0
-257 -297 0
-256 -290 0
-256 -291 0
-253 -292 0
-261 -290 0
-257 -327 0
-258 -328 0
-256 -328 0
-260 -327 0
-254 -330 0
-254 -325 0
-254 -332 0
-256 -326 0
-265 -281 0
-268 -287 0
-262 -281 0
-267 -286 0
-267 -280 0
-267 -284 0
-270 -282 0
-268 -288 0
-263 -318 0
-263 -321 0
-264 -319 0
-264 -321 0
-267 -323 0
-267 -316 0
-263 -323 0
-264 -324 0
-262 -355 0
-265 -354 0
-265 -356 0
-267 -353 0
-265 -360 0
-262 -358 0
-262 -359 0
-267 -352 0
-274 -381 0
-277 -382 0
-279 -382 0
-278 -381 0
-276 -382 0
-274 -383 0
-278 -386 0
-276 -380 0
-310 -369 0
-312 -365 0
-310 -366 0
-314 -361 0
-308 -368 0
-311 -362 0
-307 -365 0
-313 -364 0
-312 -404 0
-315 -401 0
-311 -402 0
-313 -404 0
-308 -400 0
-312 -405 0
-309 -400 0
-311 -404 0
-363 -378 0
-368 -377 0
-362 -375 0
-367 -376 0
-364 -376 0
-361 -373 0
-366 -370 0
-368 -372 0
